inputs/rsa/s-rsa-2.smt2.cnf
p cnf 608 2422
cr 577 578 579 580 581 582 583 584 585 586 587 588 589 590 591 592 593 594 595 596 597 598 599 600 601 602 603 604 605 606 607 608
1 -577 0
-1 577 0
2 -578 0
-2 578 0
3 -579 0
-3 579 0
4 -580 0
-4 580 0
5 -581 0
-5 581 0
6 -582 0
-6 582 0
7 -583 0
-7 583 0
8 -584 0
-8 584 0
9 -585 0
-9 585 0
10 -586 0
-10 586 0
11 -587 0
-11 587 0
12 -588 0
-12 588 0
13 -589 0
-13 589 0
14 -590 0
-14 590 0
15 -591 0
-15 591 0
16 -592 0
-16 592 0
17 -593 0
-17 593 0
18 -594 0
-18 594 0
19 -595 0
-19 595 0
20 -596 0
-20 596 0
21 -597 0
-21 597 0
22 -598 0
-22 598 0
23 -599 0
-23 599 0
24 -600 0
-24 600 0
25 -601 0
-25 601 0
26 -602 0
-26 602 0
27 -603 0
-27 603 0
28 -604 0
-28 604 0
29 -605 0
-29 605 0
30 -606 0
-30 606 0
31 -607 0
-31 607 0
32 -608 0
-32 608 0
-32 0
-5 33 0
-4 33 0
5 4 -33 0
-6 34 0
-33 34 0
6 33 -34 0
-7 35 0
-34 35 0
7 34 -35 0
-8 36 0
-35 36 0
8 35 -36 0
-9 37 0
-36 37 0
9 36 -37 0
-10 38 0
-37 38 0
10 37 -38 0
-11 39 0
-38 39 0
11 38 -39 0
-12 40 0
-39 40 0
12 39 -40 0
-13 41 0
-40 41 0
13 40 -41 0
-14 42 0
-41 42 0
14 41 -42 0
-15 43 0
-42 43 0
15 42 -43 0
-16 44 0
-43 44 0
16 43 -44 0
-17 45 0
-44 45 0
17 44 -45 0
-18 46 0
-45 46 0
18 45 -46 0
-19 47 0
-46 47 0
19 46 -47 0
-20 48 0
-47 48 0
20 47 -48 0
-21 49 0
-48 49 0
21 48 -49 0
-22 50 0
-49 50 0
22 49 -50 0
-23 51 0
-50 51 0
23 50 -51 0
-24 52 0
-51 52 0
24 51 -52 0
-25 53 0
-52 53 0
25 52 -53 0
-26 54 0
-53 54 0
26 53 -54 0
-27 55 0
-54 55 0
27 54 -55 0
-28 56 0
-55 56 0
28 55 -56 0
-29 57 0
-56 57 0
29 56 -57 0
-30 58 0
-57 58 0
30 57 -58 0
-31 59 0
-58 59 0
31 58 -59 0
-31 60 0
-58 60 0
31 58 -60 0
32 -60 0
32 61 0
-1 61 0
-32 1 -61 0
1 62 0
-1 61 62 0
-1 -61 -62 0
62 0
-63 2 1 0
-63 -2 -1 0
63 -2 1 0
63 2 -1 0
-32 63 0
32 2 0
-32 63 -64 0
32 2 -64 0
-32 -63 64 0
32 -2 64 0
63 2 -64 0
-63 -2 64 0
-2 65 0
-1 65 0
2 1 -65 0
-66 3 65 0
-66 -3 -65 0
66 -3 65 0
66 3 -65 0
-32 66 -67 0
32 3 -67 0
-32 -66 67 0
32 -3 67 0
66 3 -67 0
-66 -3 67 0
-68 67 64 0
-68 -67 -64 0
68 -67 64 0
68 67 -64 0
-32 68 -69 0
32 3 -69 0
-32 -68 69 0
32 -3 69 0
68 3 -69 0
-68 -3 69 0
-70 69 64 0
-70 -69 -64 0
70 -69 64 0
70 69 -64 0
-32 68 -71 0
32 3 -71 0
-32 -68 71 0
32 -3 71 0
68 3 -71 0
-68 -3 71 0
-67 72 0
-64 72 0
67 64 -72 0
-3 73 0
-65 73 0
3 65 -73 0
-74 4 73 0
-74 -4 -73 0
74 -4 73 0
74 4 -73 0
-32 74 -75 0
32 4 -75 0
-32 -74 75 0
32 -4 75 0
74 4 -75 0
-74 -4 75 0
-75 76 0
-72 76 0
75 72 -76 0
-4 77 0
-73 77 0
4 73 -77 0
-78 5 77 0
-78 -5 -77 0
78 -5 77 0
78 5 -77 0
-32 78 -79 0
32 5 -79 0
-32 -78 79 0
32 -5 79 0
78 5 -79 0
-78 -5 79 0
-79 80 0
-76 80 0
79 76 -80 0
-5 81 0
-77 81 0
5 77 -81 0
-82 6 81 0
-82 -6 -81 0
82 -6 81 0
82 6 -81 0
-32 82 -83 0
32 6 -83 0
-32 -82 83 0
32 -6 83 0
82 6 -83 0
-82 -6 83 0
-83 84 0
-80 84 0
83 80 -84 0
-6 85 0
-81 85 0
6 81 -85 0
-86 7 85 0
-86 -7 -85 0
86 -7 85 0
86 7 -85 0
-32 86 -87 0
32 7 -87 0
-32 -86 87 0
32 -7 87 0
86 7 -87 0
-86 -7 87 0
-87 88 0
-84 88 0
87 84 -88 0
-7 89 0
-85 89 0
7 85 -89 0
-90 8 89 0
-90 -8 -89 0
90 -8 89 0
90 8 -89 0
-32 90 -91 0
32 8 -91 0
-32 -90 91 0
32 -8 91 0
90 8 -91 0
-90 -8 91 0
-91 92 0
-88 92 0
91 88 -92 0
-8 93 0
-89 93 0
8 89 -93 0
-94 9 93 0
-94 -9 -93 0
94 -9 93 0
94 9 -93 0
-32 94 -95 0
32 9 -95 0
-32 -94 95 0
32 -9 95 0
94 9 -95 0
-94 -9 95 0
-95 96 0
-92 96 0
95 92 -96 0
-9 97 0
-93 97 0
9 93 -97 0
-98 10 97 0
-98 -10 -97 0
98 -10 97 0
98 10 -97 0
-32 98 -99 0
32 10 -99 0
-32 -98 99 0
32 -10 99 0
98 10 -99 0
-98 -10 99 0
-99 100 0
-96 100 0
99 96 -100 0
-10 101 0
-97 101 0
10 97 -101 0
-102 11 101 0
-102 -11 -101 0
102 -11 101 0
102 11 -101 0
-32 102 -103 0
32 11 -103 0
-32 -102 103 0
32 -11 103 0
102 11 -103 0
-102 -11 103 0
-103 104 0
-100 104 0
103 100 -104 0
-11 105 0
-101 105 0
11 101 -105 0
-106 12 105 0
-106 -12 -105 0
106 -12 105 0
106 12 -105 0
-32 106 -107 0
32 12 -107 0
-32 -106 107 0
32 -12 107 0
106 12 -107 0
-106 -12 107 0
-107 108 0
-104 108 0
107 104 -108 0
-12 109 0
-105 109 0
12 105 -109 0
-110 13 109 0
-110 -13 -109 0
110 -13 109 0
110 13 -109 0
-32 110 -111 0
32 13 -111 0
-32 -110 111 0
32 -13 111 0
110 13 -111 0
-110 -13 111 0
-111 112 0
-108 112 0
111 108 -112 0
-13 113 0
-109 113 0
13 109 -113 0
-114 14 113 0
-114 -14 -113 0
114 -14 113 0
114 14 -113 0
-32 114 -115 0
32 14 -115 0
-32 -114 115 0
32 -14 115 0
114 14 -115 0
-114 -14 115 0
-115 116 0
-112 116 0
115 112 -116 0
-14 117 0
-113 117 0
14 113 -117 0
-118 15 117 0
-118 -15 -117 0
118 -15 117 0
118 15 -117 0
-32 118 -119 0
32 15 -119 0
-32 -118 119 0
32 -15 119 0
118 15 -119 0
-118 -15 119 0
-119 120 0
-116 120 0
119 116 -120 0
-15 121 0
-117 121 0
15 117 -121 0
-122 16 121 0
-122 -16 -121 0
122 -16 121 0
122 16 -121 0
-32 122 -123 0
32 16 -123 0
-32 -122 123 0
32 -16 123 0
122 16 -123 0
-122 -16 123 0
-123 124 0
-120 124 0
123 120 -124 0
-16 125 0
-121 125 0
16 121 -125 0
-126 17 125 0
-126 -17 -125 0
126 -17 125 0
126 17 -125 0
-32 126 -127 0
32 17 -127 0
-32 -126 127 0
32 -17 127 0
126 17 -127 0
-126 -17 127 0
-127 128 0
-124 128 0
127 124 -128 0
-17 129 0
-125 129 0
17 125 -129 0
-130 18 129 0
-130 -18 -129 0
130 -18 129 0
130 18 -129 0
-32 130 -131 0
32 18 -131 0
-32 -130 131 0
32 -18 131 0
130 18 -131 0
-130 -18 131 0
-131 132 0
-128 132 0
131 128 -132 0
-18 133 0
-129 133 0
18 129 -133 0
-134 19 133 0
-134 -19 -133 0
134 -19 133 0
134 19 -133 0
-32 134 -135 0
32 19 -135 0
-32 -134 135 0
32 -19 135 0
134 19 -135 0
-134 -19 135 0
-135 136 0
-132 136 0
135 132 -136 0
-19 137 0
-133 137 0
19 133 -137 0
-138 20 137 0
-138 -20 -137 0
138 -20 137 0
138 20 -137 0
-32 138 -139 0
32 20 -139 0
-32 -138 139 0
32 -20 139 0
138 20 -139 0
-138 -20 139 0
-139 140 0
-136 140 0
139 136 -140 0
-20 141 0
-137 141 0
20 137 -141 0
-142 21 141 0
-142 -21 -141 0
142 -21 141 0
142 21 -141 0
-32 142 -143 0
32 21 -143 0
-32 -142 143 0
32 -21 143 0
142 21 -143 0
-142 -21 143 0
-143 144 0
-140 144 0
143 140 -144 0
-21 145 0
-141 145 0
21 141 -145 0
-146 22 145 0
-146 -22 -145 0
146 -22 145 0
146 22 -145 0
-32 146 -147 0
32 22 -147 0
-32 -146 147 0
32 -22 147 0
146 22 -147 0
-146 -22 147 0
-147 148 0
-144 148 0
147 144 -148 0
-22 149 0
-145 149 0
22 145 -149 0
-150 23 149 0
-150 -23 -149 0
150 -23 149 0
150 23 -149 0
-32 150 -151 0
32 23 -151 0
-32 -150 151 0
32 -23 151 0
150 23 -151 0
-150 -23 151 0
-151 152 0
-148 152 0
151 148 -152 0
-23 153 0
-149 153 0
23 149 -153 0
-154 24 153 0
-154 -24 -153 0
154 -24 153 0
154 24 -153 0
-32 154 -155 0
32 24 -155 0
-32 -154 155 0
32 -24 155 0
154 24 -155 0
-154 -24 155 0
-155 156 0
-152 156 0
155 152 -156 0
-24 157 0
-153 157 0
24 153 -157 0
-158 25 157 0
-158 -25 -157 0
158 -25 157 0
158 25 -157 0
-32 158 -159 0
32 25 -159 0
-32 -158 159 0
32 -25 159 0
158 25 -159 0
-158 -25 159 0
-159 160 0
-156 160 0
159 156 -160 0
-25 161 0
-157 161 0
25 157 -161 0
-162 26 161 0
-162 -26 -161 0
162 -26 161 0
162 26 -161 0
-32 162 -163 0
32 26 -163 0
-32 -162 163 0
32 -26 163 0
162 26 -163 0
-162 -26 163 0
-163 164 0
-160 164 0
163 160 -164 0
-26 165 0
-161 165 0
26 161 -165 0
-166 27 165 0
-166 -27 -165 0
166 -27 165 0
166 27 -165 0
-32 166 -167 0
32 27 -167 0
-32 -166 167 0
32 -27 167 0
166 27 -167 0
-166 -27 167 0
-167 168 0
-164 168 0
167 164 -168 0
-27 169 0
-165 169 0
27 165 -169 0
-170 28 169 0
-170 -28 -169 0
170 -28 169 0
170 28 -169 0
-32 170 -171 0
32 28 -171 0
-32 -170 171 0
32 -28 171 0
170 28 -171 0
-170 -28 171 0
-171 172 0
-168 172 0
171 168 -172 0
-28 173 0
-169 173 0
28 169 -173 0
-174 29 173 0
-174 -29 -173 0
174 -29 173 0
174 29 -173 0
-32 174 -175 0
32 29 -175 0
-32 -174 175 0
32 -29 175 0
174 29 -175 0
-174 -29 175 0
-175 176 0
-172 176 0
175 172 -176 0
-29 177 0
-173 177 0
29 173 -177 0
-178 30 177 0
-178 -30 -177 0
178 -30 177 0
178 30 -177 0
-32 178 -179 0
32 30 -179 0
-32 -178 179 0
32 -30 179 0
178 30 -179 0
-178 -30 179 0
-179 180 0
-176 180 0
179 176 -180 0
-30 181 0
-177 181 0
30 177 -181 0
-182 31 181 0
-182 -31 -181 0
182 -31 181 0
182 31 -181 0
-32 182 -183 0
32 31 -183 0
-32 -182 183 0
32 -31 183 0
182 31 -183 0
-182 -31 183 0
-183 184 0
-180 184 0
183 180 -184 0
-31 185 0
-181 185 0
31 181 -185 0
-186 32 -185 0
-186 -32 185 0
186 -32 -185 0
186 32 185 0
32 187 0
-186 187 0
-32 186 -187 0
32 188 0
-187 184 188 0
-32 187 -188 0
-32 -184 -188 0
-188 71 -189 0
188 70 -189 0
-188 -71 189 0
188 -70 189 0
71 70 -189 0
-71 -70 189 0
-71 190 0
-64 190 0
71 64 -190 0
-191 75 72 0
-191 -75 -72 0
191 -75 72 0
191 75 -72 0
-32 191 -192 0
32 4 -192 0
-32 -191 192 0
32 -4 192 0
191 4 -192 0
-191 -4 192 0
-193 192 190 0
-193 -192 -190 0
193 -192 190 0
193 192 -190 0
-32 191 -194 0
32 4 -194 0
-32 -191 194 0
32 -4 194 0
191 4 -194 0
-191 -4 194 0
-188 194 -195 0
188 193 -195 0
-188 -194 195 0
188 -193 195 0
194 193 -195 0
-194 -193 195 0
-196 195 189 0
-196 -195 -189 0
196 -195 189 0
196 195 -189 0
-32 191 -197 0
32 4 -197 0
-32 -191 197 0
32 -4 197 0
191 4 -197 0
-191 -4 197 0
-188 197 -198 0
188 196 -198 0
-188 -197 198 0
188 -196 198 0
197 196 -198 0
-197 -196 198 0
-198 199 0
-189 199 0
198 189 -199 0
-195 200 0
-189 200 0
195 189 -200 0
-197 201 0
-190 201 0
197 190 -201 0
-202 79 76 0
-202 -79 -76 0
202 -79 76 0
202 79 -76 0
-32 202 -203 0
32 5 -203 0
-32 -202 203 0
32 -5 203 0
202 5 -203 0
-202 -5 203 0
-204 203 201 0
-204 -203 -201 0
204 -203 201 0
204 203 -201 0
-32 202 -205 0
32 5 -205 0
-32 -202 205 0
32 -5 205 0
202 5 -205 0
-202 -5 205 0
-188 205 -206 0
188 204 -206 0
-188 -205 206 0
188 -204 206 0
205 204 -206 0
-205 -204 206 0
-207 206 200 0
-207 -206 -200 0
207 -206 200 0
207 206 -200 0
-32 202 -208 0
32 5 -208 0
-32 -202 208 0
32 -5 208 0
202 5 -208 0
-202 -5 208 0
-188 208 -209 0
188 207 -209 0
-188 -208 209 0
188 -207 209 0
208 207 -209 0
-208 -207 209 0
-209 210 0
-199 210 0
209 199 -210 0
-206 211 0
-200 211 0
206 200 -211 0
-208 212 0
-201 212 0
208 201 -212 0
-213 83 80 0
-213 -83 -80 0
213 -83 80 0
213 83 -80 0
-32 213 -214 0
32 6 -214 0
-32 -213 214 0
32 -6 214 0
213 6 -214 0
-213 -6 214 0
-215 214 212 0
-215 -214 -212 0
215 -214 212 0
215 214 -212 0
-32 213 -216 0
32 6 -216 0
-32 -213 216 0
32 -6 216 0
213 6 -216 0
-213 -6 216 0
-188 216 -217 0
188 215 -217 0
-188 -216 217 0
188 -215 217 0
216 215 -217 0
-216 -215 217 0
-218 217 211 0
-218 -217 -211 0
218 -217 211 0
218 217 -211 0
-32 213 -219 0
32 6 -219 0
-32 -213 219 0
32 -6 219 0
213 6 -219 0
-213 -6 219 0
-188 219 -220 0
188 218 -220 0
-188 -219 220 0
188 -218 220 0
219 218 -220 0
-219 -218 220 0
-220 221 0
-210 221 0
220 210 -221 0
-217 222 0
-211 222 0
217 211 -222 0
-219 223 0
-212 223 0
219 212 -223 0
-224 87 84 0
-224 -87 -84 0
224 -87 84 0
224 87 -84 0
-32 224 -225 0
32 7 -225 0
-32 -224 225 0
32 -7 225 0
224 7 -225 0
-224 -7 225 0
-226 225 223 0
-226 -225 -223 0
226 -225 223 0
226 225 -223 0
-32 224 -227 0
32 7 -227 0
-32 -224 227 0
32 -7 227 0
224 7 -227 0
-224 -7 227 0
-188 227 -228 0
188 226 -228 0
-188 -227 228 0
188 -226 228 0
227 226 -228 0
-227 -226 228 0
-229 228 222 0
-229 -228 -222 0
229 -228 222 0
229 228 -222 0
-32 224 -230 0
32 7 -230 0
-32 -224 230 0
32 -7 230 0
224 7 -230 0
-224 -7 230 0
-188 230 -231 0
188 229 -231 0
-188 -230 231 0
188 -229 231 0
230 229 -231 0
-230 -229 231 0
-231 232 0
-221 232 0
231 221 -232 0
-228 233 0
-222 233 0
228 222 -233 0
-230 234 0
-223 234 0
230 223 -234 0
-235 91 88 0
-235 -91 -88 0
235 -91 88 0
235 91 -88 0
-32 235 -236 0
32 8 -236 0
-32 -235 236 0
32 -8 236 0
235 8 -236 0
-235 -8 236 0
-237 236 234 0
-237 -236 -234 0
237 -236 234 0
237 236 -234 0
-32 235 -238 0
32 8 -238 0
-32 -235 238 0
32 -8 238 0
235 8 -238 0
-235 -8 238 0
-188 238 -239 0
188 237 -239 0
-188 -238 239 0
188 -237 239 0
238 237 -239 0
-238 -237 239 0
-240 239 233 0
-240 -239 -233 0
240 -239 233 0
240 239 -233 0
-32 235 -241 0
32 8 -241 0
-32 -235 241 0
32 -8 241 0
235 8 -241 0
-235 -8 241 0
-188 241 -242 0
188 240 -242 0
-188 -241 242 0
188 -240 242 0
241 240 -242 0
-241 -240 242 0
-242 243 0
-232 243 0
242 232 -243 0
-239 244 0
-233 244 0
239 233 -244 0
-241 245 0
-234 245 0
241 234 -245 0
-246 95 92 0
-246 -95 -92 0
246 -95 92 0
246 95 -92 0
-32 246 -247 0
32 9 -247 0
-32 -246 247 0
32 -9 247 0
246 9 -247 0
-246 -9 247 0
-248 247 245 0
-248 -247 -245 0
248 -247 245 0
248 247 -245 0
-32 246 -249 0
32 9 -249 0
-32 -246 249 0
32 -9 249 0
246 9 -249 0
-246 -9 249 0
-188 249 -250 0
188 248 -250 0
-188 -249 250 0
188 -248 250 0
249 248 -250 0
-249 -248 250 0
-251 250 244 0
-251 -250 -244 0
251 -250 244 0
251 250 -244 0
-32 246 -252 0
32 9 -252 0
-32 -246 252 0
32 -9 252 0
246 9 -252 0
-246 -9 252 0
-188 252 -253 0
188 251 -253 0
-188 -252 253 0
188 -251 253 0
252 251 -253 0
-252 -251 253 0
-253 254 0
-243 254 0
253 243 -254 0
-250 255 0
-244 255 0
250 244 -255 0
-252 256 0
-245 256 0
252 245 -256 0
-257 99 96 0
-257 -99 -96 0
257 -99 96 0
257 99 -96 0
-32 257 -258 0
32 10 -258 0
-32 -257 258 0
32 -10 258 0
257 10 -258 0
-257 -10 258 0
-259 258 256 0
-259 -258 -256 0
259 -258 256 0
259 258 -256 0
-32 257 -260 0
32 10 -260 0
-32 -257 260 0
32 -10 260 0
257 10 -260 0
-257 -10 260 0
-188 260 -261 0
188 259 -261 0
-188 -260 261 0
188 -259 261 0
260 259 -261 0
-260 -259 261 0
-262 261 255 0
-262 -261 -255 0
262 -261 255 0
262 261 -255 0
-32 257 -263 0
32 10 -263 0
-32 -257 263 0
32 -10 263 0
257 10 -263 0
-257 -10 263 0
-188 263 -264 0
188 262 -264 0
-188 -263 264 0
188 -262 264 0
263 262 -264 0
-263 -262 264 0
-264 265 0
-254 265 0
264 254 -265 0
-261 266 0
-255 266 0
261 255 -266 0
-263 267 0
-256 267 0
263 256 -267 0
-268 103 100 0
-268 -103 -100 0
268 -103 100 0
268 103 -100 0
-32 268 -269 0
32 11 -269 0
-32 -268 269 0
32 -11 269 0
268 11 -269 0
-268 -11 269 0
-270 269 267 0
-270 -269 -267 0
270 -269 267 0
270 269 -267 0
-32 268 -271 0
32 11 -271 0
-32 -268 271 0
32 -11 271 0
268 11 -271 0
-268 -11 271 0
-188 271 -272 0
188 270 -272 0
-188 -271 272 0
188 -270 272 0
271 270 -272 0
-271 -270 272 0
-273 272 266 0
-273 -272 -266 0
273 -272 266 0
273 272 -266 0
-32 268 -274 0
32 11 -274 0
-32 -268 274 0
32 -11 274 0
268 11 -274 0
-268 -11 274 0
-188 274 -275 0
188 273 -275 0
-188 -274 275 0
188 -273 275 0
274 273 -275 0
-274 -273 275 0
-275 276 0
-265 276 0
275 265 -276 0
-272 277 0
-266 277 0
272 266 -277 0
-274 278 0
-267 278 0
274 267 -278 0
-279 107 104 0
-279 -107 -104 0
279 -107 104 0
279 107 -104 0
-32 279 -280 0
32 12 -280 0
-32 -279 280 0
32 -12 280 0
279 12 -280 0
-279 -12 280 0
-281 280 278 0
-281 -280 -278 0
281 -280 278 0
281 280 -278 0
-32 279 -282 0
32 12 -282 0
-32 -279 282 0
32 -12 282 0
279 12 -282 0
-279 -12 282 0
-188 282 -283 0
188 281 -283 0
-188 -282 283 0
188 -281 283 0
282 281 -283 0
-282 -281 283 0
-284 283 277 0
-284 -283 -277 0
284 -283 277 0
284 283 -277 0
-32 279 -285 0
32 12 -285 0
-32 -279 285 0
32 -12 285 0
279 12 -285 0
-279 -12 285 0
-188 285 -286 0
188 284 -286 0
-188 -285 286 0
188 -284 286 0
285 284 -286 0
-285 -284 286 0
-286 287 0
-276 287 0
286 276 -287 0
-283 288 0
-277 288 0
283 277 -288 0
-285 289 0
-278 289 0
285 278 -289 0
-290 111 108 0
-290 -111 -108 0
290 -111 108 0
290 111 -108 0
-32 290 -291 0
32 13 -291 0
-32 -290 291 0
32 -13 291 0
290 13 -291 0
-290 -13 291 0
-292 291 289 0
-292 -291 -289 0
292 -291 289 0
292 291 -289 0
-32 290 -293 0
32 13 -293 0
-32 -290 293 0
32 -13 293 0
290 13 -293 0
-290 -13 293 0
-188 293 -294 0
188 292 -294 0
-188 -293 294 0
188 -292 294 0
293 292 -294 0
-293 -292 294 0
-295 294 288 0
-295 -294 -288 0
295 -294 288 0
295 294 -288 0
-32 290 -296 0
32 13 -296 0
-32 -290 296 0
32 -13 296 0
290 13 -296 0
-290 -13 296 0
-188 296 -297 0
188 295 -297 0
-188 -296 297 0
188 -295 297 0
296 295 -297 0
-296 -295 297 0
-297 298 0
-287 298 0
297 287 -298 0
-294 299 0
-288 299 0
294 288 -299 0
-296 300 0
-289 300 0
296 289 -300 0
-301 115 112 0
-301 -115 -112 0
301 -115 112 0
301 115 -112 0
-32 301 -302 0
32 14 -302 0
-32 -301 302 0
32 -14 302 0
301 14 -302 0
-301 -14 302 0
-303 302 300 0
-303 -302 -300 0
303 -302 300 0
303 302 -300 0
-32 301 -304 0
32 14 -304 0
-32 -301 304 0
32 -14 304 0
301 14 -304 0
-301 -14 304 0
-188 304 -305 0
188 303 -305 0
-188 -304 305 0
188 -303 305 0
304 303 -305 0
-304 -303 305 0
-306 305 299 0
-306 -305 -299 0
306 -305 299 0
306 305 -299 0
-32 301 -307 0
32 14 -307 0
-32 -301 307 0
32 -14 307 0
301 14 -307 0
-301 -14 307 0
-188 307 -308 0
188 306 -308 0
-188 -307 308 0
188 -306 308 0
307 306 -308 0
-307 -306 308 0
-308 309 0
-298 309 0
308 298 -309 0
-305 310 0
-299 310 0
305 299 -310 0
-307 311 0
-300 311 0
307 300 -311 0
-312 119 116 0
-312 -119 -116 0
312 -119 116 0
312 119 -116 0
-32 312 -313 0
32 15 -313 0
-32 -312 313 0
32 -15 313 0
312 15 -313 0
-312 -15 313 0
-314 313 311 0
-314 -313 -311 0
314 -313 311 0
314 313 -311 0
-32 312 -315 0
32 15 -315 0
-32 -312 315 0
32 -15 315 0
312 15 -315 0
-312 -15 315 0
-188 315 -316 0
188 314 -316 0
-188 -315 316 0
188 -314 316 0
315 314 -316 0
-315 -314 316 0
-317 316 310 0
-317 -316 -310 0
317 -316 310 0
317 316 -310 0
-32 312 -318 0
32 15 -318 0
-32 -312 318 0
32 -15 318 0
312 15 -318 0
-312 -15 318 0
-188 318 -319 0
188 317 -319 0
-188 -318 319 0
188 -317 319 0
318 317 -319 0
-318 -317 319 0
-319 320 0
-309 320 0
319 309 -320 0
-316 321 0
-310 321 0
316 310 -321 0
-318 322 0
-311 322 0
318 311 -322 0
-323 123 120 0
-323 -123 -120 0
323 -123 120 0
323 123 -120 0
-32 323 -324 0
32 16 -324 0
-32 -323 324 0
32 -16 324 0
323 16 -324 0
-323 -16 324 0
-325 324 322 0
-325 -324 -322 0
325 -324 322 0
325 324 -322 0
-32 323 -326 0
32 16 -326 0
-32 -323 326 0
32 -16 326 0
323 16 -326 0
-323 -16 326 0
-188 326 -327 0
188 325 -327 0
-188 -326 327 0
188 -325 327 0
326 325 -327 0
-326 -325 327 0
-328 327 321 0
-328 -327 -321 0
328 -327 321 0
328 327 -321 0
-32 323 -329 0
32 16 -329 0
-32 -323 329 0
32 -16 329 0
323 16 -329 0
-323 -16 329 0
-188 329 -330 0
188 328 -330 0
-188 -329 330 0
188 -328 330 0
329 328 -330 0
-329 -328 330 0
-330 331 0
-320 331 0
330 320 -331 0
-327 332 0
-321 332 0
327 321 -332 0
-329 333 0
-322 333 0
329 322 -333 0
-334 127 124 0
-334 -127 -124 0
334 -127 124 0
334 127 -124 0
-32 334 -335 0
32 17 -335 0
-32 -334 335 0
32 -17 335 0
334 17 -335 0
-334 -17 335 0
-336 335 333 0
-336 -335 -333 0
336 -335 333 0
336 335 -333 0
-32 334 -337 0
32 17 -337 0
-32 -334 337 0
32 -17 337 0
334 17 -337 0
-334 -17 337 0
-188 337 -338 0
188 336 -338 0
-188 -337 338 0
188 -336 338 0
337 336 -338 0
-337 -336 338 0
-339 338 332 0
-339 -338 -332 0
339 -338 332 0
339 338 -332 0
-32 334 -340 0
32 17 -340 0
-32 -334 340 0
32 -17 340 0
334 17 -340 0
-334 -17 340 0
-188 340 -341 0
188 339 -341 0
-188 -340 341 0
188 -339 341 0
340 339 -341 0
-340 -339 341 0
-341 342 0
-331 342 0
341 331 -342 0
-338 343 0
-332 343 0
338 332 -343 0
-340 344 0
-333 344 0
340 333 -344 0
-345 131 128 0
-345 -131 -128 0
345 -131 128 0
345 131 -128 0
-32 345 -346 0
32 18 -346 0
-32 -345 346 0
32 -18 346 0
345 18 -346 0
-345 -18 346 0
-347 346 344 0
-347 -346 -344 0
347 -346 344 0
347 346 -344 0
-32 345 -348 0
32 18 -348 0
-32 -345 348 0
32 -18 348 0
345 18 -348 0
-345 -18 348 0
-188 348 -349 0
188 347 -349 0
-188 -348 349 0
188 -347 349 0
348 347 -349 0
-348 -347 349 0
-350 349 343 0
-350 -349 -343 0
350 -349 343 0
350 349 -343 0
-32 345 -351 0
32 18 -351 0
-32 -345 351 0
32 -18 351 0
345 18 -351 0
-345 -18 351 0
-188 351 -352 0
188 350 -352 0
-188 -351 352 0
188 -350 352 0
351 350 -352 0
-351 -350 352 0
-352 353 0
-342 353 0
352 342 -353 0
-349 354 0
-343 354 0
349 343 -354 0
-351 355 0
-344 355 0
351 344 -355 0
-356 135 132 0
-356 -135 -132 0
356 -135 132 0
356 135 -132 0
-32 356 -357 0
32 19 -357 0
-32 -356 357 0
32 -19 357 0
356 19 -357 0
-356 -19 357 0
-358 357 355 0
-358 -357 -355 0
358 -357 355 0
358 357 -355 0
-32 356 -359 0
32 19 -359 0
-32 -356 359 0
32 -19 359 0
356 19 -359 0
-356 -19 359 0
-188 359 -360 0
188 358 -360 0
-188 -359 360 0
188 -358 360 0
359 358 -360 0
-359 -358 360 0
-361 360 354 0
-361 -360 -354 0
361 -360 354 0
361 360 -354 0
-32 356 -362 0
32 19 -362 0
-32 -356 362 0
32 -19 362 0
356 19 -362 0
-356 -19 362 0
-188 362 -363 0
188 361 -363 0
-188 -362 363 0
188 -361 363 0
362 361 -363 0
-362 -361 363 0
-363 364 0
-353 364 0
363 353 -364 0
-360 365 0
-354 365 0
360 354 -365 0
-362 366 0
-355 366 0
362 355 -366 0
-367 139 136 0
-367 -139 -136 0
367 -139 136 0
367 139 -136 0
-32 367 -368 0
32 20 -368 0
-32 -367 368 0
32 -20 368 0
367 20 -368 0
-367 -20 368 0
-369 368 366 0
-369 -368 -366 0
369 -368 366 0
369 368 -366 0
-32 367 -370 0
32 20 -370 0
-32 -367 370 0
32 -20 370 0
367 20 -370 0
-367 -20 370 0
-188 370 -371 0
188 369 -371 0
-188 -370 371 0
188 -369 371 0
370 369 -371 0
-370 -369 371 0
-372 371 365 0
-372 -371 -365 0
372 -371 365 0
372 371 -365 0
-32 367 -373 0
32 20 -373 0
-32 -367 373 0
32 -20 373 0
367 20 -373 0
-367 -20 373 0
-188 373 -374 0
188 372 -374 0
-188 -373 374 0
188 -372 374 0
373 372 -374 0
-373 -372 374 0
-374 375 0
-364 375 0
374 364 -375 0
-371 376 0
-365 376 0
371 365 -376 0
-373 377 0
-366 377 0
373 366 -377 0
-378 143 140 0
-378 -143 -140 0
378 -143 140 0
378 143 -140 0
-32 378 -379 0
32 21 -379 0
-32 -378 379 0
32 -21 379 0
378 21 -379 0
-378 -21 379 0
-380 379 377 0
-380 -379 -377 0
380 -379 377 0
380 379 -377 0
-32 378 -381 0
32 21 -381 0
-32 -378 381 0
32 -21 381 0
378 21 -381 0
-378 -21 381 0
-188 381 -382 0
188 380 -382 0
-188 -381 382 0
188 -380 382 0
381 380 -382 0
-381 -380 382 0
-383 382 376 0
-383 -382 -376 0
383 -382 376 0
383 382 -376 0
-32 378 -384 0
32 21 -384 0
-32 -378 384 0
32 -21 384 0
378 21 -384 0
-378 -21 384 0
-188 384 -385 0
188 383 -385 0
-188 -384 385 0
188 -383 385 0
384 383 -385 0
-384 -383 385 0
-385 386 0
-375 386 0
385 375 -386 0
-382 387 0
-376 387 0
382 376 -387 0
-384 388 0
-377 388 0
384 377 -388 0
-389 147 144 0
-389 -147 -144 0
389 -147 144 0
389 147 -144 0
-32 389 -390 0
32 22 -390 0
-32 -389 390 0
32 -22 390 0
389 22 -390 0
-389 -22 390 0
-391 390 388 0
-391 -390 -388 0
391 -390 388 0
391 390 -388 0
-32 389 -392 0
32 22 -392 0
-32 -389 392 0
32 -22 392 0
389 22 -392 0
-389 -22 392 0
-188 392 -393 0
188 391 -393 0
-188 -392 393 0
188 -391 393 0
392 391 -393 0
-392 -391 393 0
-394 393 387 0
-394 -393 -387 0
394 -393 387 0
394 393 -387 0
-32 389 -395 0
32 22 -395 0
-32 -389 395 0
32 -22 395 0
389 22 -395 0
-389 -22 395 0
-188 395 -396 0
188 394 -396 0
-188 -395 396 0
188 -394 396 0
395 394 -396 0
-395 -394 396 0
-396 397 0
-386 397 0
396 386 -397 0
-393 398 0
-387 398 0
393 387 -398 0
-395 399 0
-388 399 0
395 388 -399 0
-400 151 148 0
-400 -151 -148 0
400 -151 148 0
400 151 -148 0
-32 400 -401 0
32 23 -401 0
-32 -400 401 0
32 -23 401 0
400 23 -401 0
-400 -23 401 0
-402 401 399 0
-402 -401 -399 0
402 -401 399 0
402 401 -399 0
-32 400 -403 0
32 23 -403 0
-32 -400 403 0
32 -23 403 0
400 23 -403 0
-400 -23 403 0
-188 403 -404 0
188 402 -404 0
-188 -403 404 0
188 -402 404 0
403 402 -404 0
-403 -402 404 0
-405 404 398 0
-405 -404 -398 0
405 -404 398 0
405 404 -398 0
-32 400 -406 0
32 23 -406 0
-32 -400 406 0
32 -23 406 0
400 23 -406 0
-400 -23 406 0
-188 406 -407 0
188 405 -407 0
-188 -406 407 0
188 -405 407 0
406 405 -407 0
-406 -405 407 0
-407 408 0
-397 408 0
407 397 -408 0
-404 409 0
-398 409 0
404 398 -409 0
-406 410 0
-399 410 0
406 399 -410 0
-411 155 152 0
-411 -155 -152 0
411 -155 152 0
411 155 -152 0
-32 411 -412 0
32 24 -412 0
-32 -411 412 0
32 -24 412 0
411 24 -412 0
-411 -24 412 0
-413 412 410 0
-413 -412 -410 0
413 -412 410 0
413 412 -410 0
-32 411 -414 0
32 24 -414 0
-32 -411 414 0
32 -24 414 0
411 24 -414 0
-411 -24 414 0
-188 414 -415 0
188 413 -415 0
-188 -414 415 0
188 -413 415 0
414 413 -415 0
-414 -413 415 0
-416 415 409 0
-416 -415 -409 0
416 -415 409 0
416 415 -409 0
-32 411 -417 0
32 24 -417 0
-32 -411 417 0
32 -24 417 0
411 24 -417 0
-411 -24 417 0
-188 417 -418 0
188 416 -418 0
-188 -417 418 0
188 -416 418 0
417 416 -418 0
-417 -416 418 0
-418 419 0
-408 419 0
418 408 -419 0
-415 420 0
-409 420 0
415 409 -420 0
-417 421 0
-410 421 0
417 410 -421 0
-422 159 156 0
-422 -159 -156 0
422 -159 156 0
422 159 -156 0
-32 422 -423 0
32 25 -423 0
-32 -422 423 0
32 -25 423 0
422 25 -423 0
-422 -25 423 0
-424 423 421 0
-424 -423 -421 0
424 -423 421 0
424 423 -421 0
-32 422 -425 0
32 25 -425 0
-32 -422 425 0
32 -25 425 0
422 25 -425 0
-422 -25 425 0
-188 425 -426 0
188 424 -426 0
-188 -425 426 0
188 -424 426 0
425 424 -426 0
-425 -424 426 0
-427 426 420 0
-427 -426 -420 0
427 -426 420 0
427 426 -420 0
-32 422 -428 0
32 25 -428 0
-32 -422 428 0
32 -25 428 0
422 25 -428 0
-422 -25 428 0
-188 428 -429 0
188 427 -429 0
-188 -428 429 0
188 -427 429 0
428 427 -429 0
-428 -427 429 0
-429 430 0
-419 430 0
429 419 -430 0
-426 431 0
-420 431 0
426 420 -431 0
-428 432 0
-421 432 0
428 421 -432 0
-433 163 160 0
-433 -163 -160 0
433 -163 160 0
433 163 -160 0
-32 433 -434 0
32 26 -434 0
-32 -433 434 0
32 -26 434 0
433 26 -434 0
-433 -26 434 0
-435 434 432 0
-435 -434 -432 0
435 -434 432 0
435 434 -432 0
-32 433 -436 0
32 26 -436 0
-32 -433 436 0
32 -26 436 0
433 26 -436 0
-433 -26 436 0
-188 436 -437 0
188 435 -437 0
-188 -436 437 0
188 -435 437 0
436 435 -437 0
-436 -435 437 0
-438 437 431 0
-438 -437 -431 0
438 -437 431 0
438 437 -431 0
-32 433 -439 0
32 26 -439 0
-32 -433 439 0
32 -26 439 0
433 26 -439 0
-433 -26 439 0
-188 439 -440 0
188 438 -440 0
-188 -439 440 0
188 -438 440 0
439 438 -440 0
-439 -438 440 0
-440 441 0
-430 441 0
440 430 -441 0
-437 442 0
-431 442 0
437 431 -442 0
-439 443 0
-432 443 0
439 432 -443 0
-444 167 164 0
-444 -167 -164 0
444 -167 164 0
444 167 -164 0
-32 444 -445 0
32 27 -445 0
-32 -444 445 0
32 -27 445 0
444 27 -445 0
-444 -27 445 0
-446 445 443 0
-446 -445 -443 0
446 -445 443 0
446 445 -443 0
-32 444 -447 0
32 27 -447 0
-32 -444 447 0
32 -27 447 0
444 27 -447 0
-444 -27 447 0
-188 447 -448 0
188 446 -448 0
-188 -447 448 0
188 -446 448 0
447 446 -448 0
-447 -446 448 0
-449 448 442 0
-449 -448 -442 0
449 -448 442 0
449 448 -442 0
-32 444 -450 0
32 27 -450 0
-32 -444 450 0
32 -27 450 0
444 27 -450 0
-444 -27 450 0
-188 450 -451 0
188 449 -451 0
-188 -450 451 0
188 -449 451 0
450 449 -451 0
-450 -449 451 0
-451 452 0
-441 452 0
451 441 -452 0
-448 453 0
-442 453 0
448 442 -453 0
-450 454 0
-443 454 0
450 443 -454 0
-455 171 168 0
-455 -171 -168 0
455 -171 168 0
455 171 -168 0
-32 455 -456 0
32 28 -456 0
-32 -455 456 0
32 -28 456 0
455 28 -456 0
-455 -28 456 0
-457 456 454 0
-457 -456 -454 0
457 -456 454 0
457 456 -454 0
-32 455 -458 0
32 28 -458 0
-32 -455 458 0
32 -28 458 0
455 28 -458 0
-455 -28 458 0
-188 458 -459 0
188 457 -459 0
-188 -458 459 0
188 -457 459 0
458 457 -459 0
-458 -457 459 0
-460 459 453 0
-460 -459 -453 0
460 -459 453 0
460 459 -453 0
-32 455 -461 0
32 28 -461 0
-32 -455 461 0
32 -28 461 0
455 28 -461 0
-455 -28 461 0
-188 461 -462 0
188 460 -462 0
-188 -461 462 0
188 -460 462 0
461 460 -462 0
-461 -460 462 0
-462 463 0
-452 463 0
462 452 -463 0
-459 464 0
-453 464 0
459 453 -464 0
-461 465 0
-454 465 0
461 454 -465 0
-466 175 172 0
-466 -175 -172 0
466 -175 172 0
466 175 -172 0
-32 466 -467 0
32 29 -467 0
-32 -466 467 0
32 -29 467 0
466 29 -467 0
-466 -29 467 0
-468 467 465 0
-468 -467 -465 0
468 -467 465 0
468 467 -465 0
-32 466 -469 0
32 29 -469 0
-32 -466 469 0
32 -29 469 0
466 29 -469 0
-466 -29 469 0
-188 469 -470 0
188 468 -470 0
-188 -469 470 0
188 -468 470 0
469 468 -470 0
-469 -468 470 0
-471 470 464 0
-471 -470 -464 0
471 -470 464 0
471 470 -464 0
-32 466 -472 0
32 29 -472 0
-32 -466 472 0
32 -29 472 0
466 29 -472 0
-466 -29 472 0
-188 472 -473 0
188 471 -473 0
-188 -472 473 0
188 -471 473 0
472 471 -473 0
-472 -471 473 0
-473 474 0
-463 474 0
473 463 -474 0
-470 475 0
-464 475 0
470 464 -475 0
-472 476 0
-465 476 0
472 465 -476 0
-477 179 176 0
-477 -179 -176 0
477 -179 176 0
477 179 -176 0
-32 477 -478 0
32 30 -478 0
-32 -477 478 0
32 -30 478 0
477 30 -478 0
-477 -30 478 0
-479 478 476 0
-479 -478 -476 0
479 -478 476 0
479 478 -476 0
-32 477 -480 0
32 30 -480 0
-32 -477 480 0
32 -30 480 0
477 30 -480 0
-477 -30 480 0
-188 480 -481 0
188 479 -481 0
-188 -480 481 0
188 -479 481 0
480 479 -481 0
-480 -479 481 0
-482 481 475 0
-482 -481 -475 0
482 -481 475 0
482 481 -475 0
-32 477 -483 0
32 30 -483 0
-32 -477 483 0
32 -30 483 0
477 30 -483 0
-477 -30 483 0
-188 483 -484 0
188 482 -484 0
-188 -483 484 0
188 -482 484 0
483 482 -484 0
-483 -482 484 0
-484 485 0
-474 485 0
484 474 -485 0
-481 486 0
-475 486 0
481 475 -486 0
-483 487 0
-476 487 0
483 476 -487 0
-488 183 180 0
-488 -183 -180 0
488 -183 180 0
488 183 -180 0
-32 488 -489 0
32 31 -489 0
-32 -488 489 0
32 -31 489 0
488 31 -489 0
-488 -31 489 0
-490 489 487 0
-490 -489 -487 0
490 -489 487 0
490 489 -487 0
-32 488 -491 0
32 31 -491 0
-32 -488 491 0
32 -31 491 0
488 31 -491 0
-488 -31 491 0
-188 491 -492 0
188 490 -492 0
-188 -491 492 0
188 -490 492 0
491 490 -492 0
-491 -490 492 0
-493 492 486 0
-493 -492 -486 0
493 -492 486 0
493 492 -486 0
-32 488 -494 0
32 31 -494 0
-32 -488 494 0
32 -31 494 0
488 31 -494 0
-488 -31 494 0
-188 494 -495 0
188 493 -495 0
-188 -494 495 0
188 -493 495 0
494 493 -495 0
-494 -493 495 0
-495 496 0
-485 496 0
495 485 -496 0
-492 497 0
-486 497 0
492 486 -497 0
-494 498 0
-487 498 0
494 487 -498 0
-499 187 -184 0
-499 -187 184 0
499 -187 -184 0
499 187 184 0
-32 499 -500 0
32 -187 -500 0
-32 -499 500 0
32 187 500 0
499 -187 -500 0
-499 187 500 0
-501 500 498 0
-501 -500 -498 0
501 -500 498 0
501 500 -498 0
-32 499 -502 0
32 -187 -502 0
-32 -499 502 0
32 187 502 0
499 -187 -502 0
-499 187 502 0
-188 502 -503 0
188 501 -503 0
-188 -502 503 0
188 -501 503 0
502 501 -503 0
-502 -501 503 0
-504 503 497 0
-504 -503 -497 0
504 -503 497 0
504 503 -497 0
-32 499 -505 0
32 -187 -505 0
-32 -499 505 0
32 187 505 0
499 -187 -505 0
-499 187 505 0
-188 505 -506 0
188 504 -506 0
-188 -505 506 0
188 -504 506 0
505 504 -506 0
-505 -504 506 0
-506 507 0
-496 507 0
506 496 -507 0
-503 508 0
-497 508 0
503 497 -508 0
-505 509 0
-498 509 0
505 498 -509 0
-510 188 -509 0
-510 -188 509 0
510 -188 -509 0
510 188 509 0
-188 -511 0
188 510 -511 0
188 -510 511 0
-188 510 -511 0
-512 511 508 0
-512 -511 -508 0
512 -511 508 0
512 511 -508 0
-188 -513 0
188 512 -513 0
188 -512 513 0
-188 512 -513 0
-513 514 0
-507 514 0
513 507 -514 0
-188 515 0
511 508 515 0
188 -511 -515 0
188 -508 -515 0
-513 516 0
-507 516 0
513 507 -516 0
-188 517 0
511 508 517 0
188 -511 -517 0
188 -508 -517 0
-517 -516 0
-2 518 0
-1 518 0
-2 -1 518 0
2 1 -518 0
-2 519 0
-1 519 0
-2 -1 519 0
2 1 -519 0
-3 520 0
-519 520 0
-3 -519 520 0
3 519 -520 0
-3 521 0
-519 521 0
-3 -519 521 0
3 519 -521 0
-4 522 0
-521 522 0
-4 -521 522 0
4 521 -522 0
-4 523 0
-521 523 0
-4 -521 523 0
4 521 -523 0
-5 524 0
-523 524 0
-5 -523 524 0
5 523 -524 0
-5 525 0
-523 525 0
-5 -523 525 0
5 523 -525 0
-6 526 0
-525 526 0
-6 -525 526 0
6 525 -526 0
-6 527 0
-525 527 0
-6 -525 527 0
6 525 -527 0
-7 528 0
-527 528 0
-7 -527 528 0
7 527 -528 0
-7 529 0
-527 529 0
-7 -527 529 0
7 527 -529 0
-8 530 0
-529 530 0
-8 -529 530 0
8 529 -530 0
-8 531 0
-529 531 0
-8 -529 531 0
8 529 -531 0
-9 532 0
-531 532 0
-9 -531 532 0
9 531 -532 0
-9 533 0
-531 533 0
-9 -531 533 0
9 531 -533 0
-10 534 0
-533 534 0
-10 -533 534 0
10 533 -534 0
-10 535 0
-533 535 0
-10 -533 535 0
10 533 -535 0
-11 536 0
-535 536 0
-11 -535 536 0
11 535 -536 0
-11 537 0
-535 537 0
-11 -535 537 0
11 535 -537 0
-12 538 0
-537 538 0
-12 -537 538 0
12 537 -538 0
-12 539 0
-537 539 0
-12 -537 539 0
12 537 -539 0
-13 540 0
-539 540 0
-13 -539 540 0
13 539 -540 0
-13 541 0
-539 541 0
-13 -539 541 0
13 539 -541 0
-14 542 0
-541 542 0
-14 -541 542 0
14 541 -542 0
-14 543 0
-541 543 0
-14 -541 543 0
14 541 -543 0
-15 544 0
-543 544 0
-15 -543 544 0
15 543 -544 0
-15 545 0
-543 545 0
-15 -543 545 0
15 543 -545 0
-16 546 0
-545 546 0
-16 -545 546 0
16 545 -546 0
-16 547 0
-545 547 0
-16 -545 547 0
16 545 -547 0
-17 548 0
-547 548 0
-17 -547 548 0
17 547 -548 0
-17 549 0
-547 549 0
-17 -547 549 0
17 547 -549 0
-18 550 0
-549 550 0
-18 -549 550 0
18 549 -550 0
-18 551 0
-549 551 0
-18 -549 551 0
18 549 -551 0
-19 552 0
-551 552 0
-19 -551 552 0
19 551 -552 0
-19 553 0
-551 553 0
-19 -551 553 0
19 551 -553 0
-20 554 0
-553 554 0
-20 -553 554 0
20 553 -554 0
-20 555 0
-553 555 0
-20 -553 555 0
20 553 -555 0
-21 556 0
-555 556 0
-21 -555 556 0
21 555 -556 0
-21 557 0
-555 557 0
-21 -555 557 0
21 555 -557 0
-22 558 0
-557 558 0
-22 -557 558 0
22 557 -558 0
-22 559 0
-557 559 0
-22 -557 559 0
22 557 -559 0
-23 560 0
-559 560 0
-23 -559 560 0
23 559 -560 0
-23 561 0
-559 561 0
-23 -559 561 0
23 559 -561 0
-24 562 0
-561 562 0
-24 -561 562 0
24 561 -562 0
-24 563 0
-561 563 0
-24 -561 563 0
24 561 -563 0
-25 564 0
-563 564 0
-25 -563 564 0
25 563 -564 0
-25 565 0
-563 565 0
-25 -563 565 0
25 563 -565 0
-26 566 0
-565 566 0
-26 -565 566 0
26 565 -566 0
-26 567 0
-565 567 0
-26 -565 567 0
26 565 -567 0
-27 568 0
-567 568 0
-27 -567 568 0
27 567 -568 0
-27 569 0
-567 569 0
-27 -567 569 0
27 567 -569 0
-28 570 0
-569 570 0
-28 -569 570 0
28 569 -570 0
-28 571 0
-569 571 0
-28 -569 571 0
28 569 -571 0
-29 572 0
-571 572 0
-29 -571 572 0
29 571 -572 0
-29 573 0
-571 573 0
-29 -571 573 0
29 571 -573 0
-30 574 0
-573 574 0
-30 -573 574 0
30 573 -574 0
-30 575 0
-573 575 0
-30 -573 575 0
30 573 -575 0
31 575 0
-188 576 0
-64 576 0
188 64 -576 0
